\ Model StohasticSaphlp
\ LP format - for model browsing. Use MPS format to capture full model detail.
Minimize
  100 Z[0] + 500 Z[1] + 100 Z[2] + 500 Z[3] + 0 X[0,0,0]
   + 54.1726911820839 X[0,1,0] + 433.3815294566712 X[0,2,0]
   + 487.5542206387551 X[0,3,0] + 70.83538509215127 X[1,0,0] + 0 X[1,1,0]
   + 495.8476956450588 X[1,2,0] + 566.6830807372102 X[1,3,0]
   + 591.9460134789739 X[2,0,0] + 517.9527617941021 X[2,1,0] + 0 X[2,2,0]
   + 73.99325168487174 X[2,3,0] + 941.8294025998323 X[3,0,0]
   + 837.181691199851 X[3,1,0] + 104.6477113999814 X[3,2,0] + 0 X[3,3,0]
   + [ 1.513829624164551 Z[0] * X[0,1,0]
   + 12.11063699331641 Z[0] * X[0,2,0] + 13.62446661748096 Z[0] * X[0,3,0]
   + 68.10893333561839 Z[0] * X[1,2,0] + 76.62255000257068 Z[0] * X[1,3,0]
   + 1.938837637946186 Z[0] * X[2,1,0] + 17.44953874151568 Z[0] * X[2,3,0]
   + 1.559787401540777 Z[0] * X[3,1,0] + 12.47829921232621 Z[0] * X[3,2,0]
   + 100.5922686312328 Z[1] * X[0,2,0] + 114.9625927214089 Z[1] * X[0,3,0]
   + 3.232686921453216 Z[1] * X[1,0,0] + 22.62880845017251 Z[1] * X[1,2,0]
   + 25.86149537162573 Z[1] * X[1,3,0] + 3.680959174107128 Z[1] * X[2,0,0]
   + 29.44767339285702 Z[1] * X[2,3,0] + 2.961317457938475 Z[1] * X[3,0,0]
   + 20.72922220556933 Z[1] * X[3,2,0] + 10.37262823679918 Z[2] * X[0,1,0]
   + 1.481804033828454 Z[2] * X[0,3,0] + 13.33361304937738 Z[2] * X[1,0,0]
   + 1.666701631172173 Z[2] * X[1,3,0] + 15.18256684629288 Z[2] * X[2,0,0]
   + 13.28474599050627 Z[2] * X[2,1,0] + 1.89782085578661 Z[2] * X[2,3,0]
   + 73.28589880785761 Z[2] * X[3,0,0] + 64.1251614568754 Z[2] * X[3,1,0]
   + 23.79562913990465 Z[3] * X[0,1,0] + 2.974453642488082 Z[3] * X[0,2,0]
   + 30.11041920621023 Z[3] * X[1,0,0] + 3.345602134023359 Z[3] * X[1,2,0]
   + 240.0005275934374 Z[3] * X[2,0,0] + 213.3338023052777 Z[3] * X[2,1,0]
   + 55.16557107306425 Z[3] * X[3,0,0] + 49.03606317605711 Z[3] * X[3,1,0]
   + 6.129507897007139 Z[3] * X[3,2,0] ] / 2 
Subject To
 only__one_hubs0: Z[0] + X[0,1,0] + X[0,2,0] + X[0,3,0] = 1
 only__one_hubs0: Z[1] + X[1,0,0] + X[1,2,0] + X[1,3,0] = 1
 only__one_hubs0: Z[2] + X[2,0,0] + X[2,1,0] + X[2,3,0] = 1
 only__one_hubs0: Z[3] + X[3,0,0] + X[3,1,0] + X[3,2,0] = 1
 nodes_no_connected(0,_1,_0): - Z[1] + X[0,1,0] <= 0
 nodes_no_connected(0,_2,_0): - Z[2] + X[0,2,0] <= 0
 nodes_no_connected(0,_3,_0): - Z[3] + X[0,3,0] <= 0
 nodes_no_connected(1,_0,_0): - Z[0] + X[1,0,0] <= 0
 nodes_no_connected(1,_2,_0): - Z[2] + X[1,2,0] <= 0
 nodes_no_connected(1,_3,_0): - Z[3] + X[1,3,0] <= 0
 nodes_no_connected(2,_0,_0): - Z[0] + X[2,0,0] <= 0
 nodes_no_connected(2,_1,_0): - Z[1] + X[2,1,0] <= 0
 nodes_no_connected(2,_3,_0): - Z[3] + X[2,3,0] <= 0
 nodes_no_connected(3,_0,_0): - Z[0] + X[3,0,0] <= 0
 nodes_no_connected(3,_1,_0): - Z[1] + X[3,1,0] <= 0
 nodes_no_connected(3,_2,_0): - Z[2] + X[3,2,0] <= 0
Bounds
 Z[0] <= 1
 Z[1] <= 1
 Z[2] <= 1
 Z[3] <= 1
 X[0,0,0] <= 1
 X[0,1,0] <= 1
 X[0,2,0] <= 1
 X[0,3,0] <= 1
 X[1,0,0] <= 1
 X[1,1,0] <= 1
 X[1,2,0] <= 1
 X[1,3,0] <= 1
 X[2,0,0] <= 1
 X[2,1,0] <= 1
 X[2,2,0] <= 1
 X[2,3,0] <= 1
 X[3,0,0] <= 1
 X[3,1,0] <= 1
 X[3,2,0] <= 1
 X[3,3,0] <= 1
Generals
 Z[0] Z[1] Z[2] Z[3] X[0,0,0] X[0,1,0] X[0,2,0] X[0,3,0] X[1,0,0] X[1,1,0]
 X[1,2,0] X[1,3,0] X[2,0,0] X[2,1,0] X[2,2,0] X[2,3,0] X[3,0,0] X[3,1,0]
 X[3,2,0] X[3,3,0]
End
